57
150
105	1
104	3
103	3
102	1
100	3
99	2
98	1
96	2
94	1
92	1
91	1
90	2
88	1
85	3
84	1
83	1
82	3
81	1
78	3
77	1
76	1
75	2
73	3
72	3
70	3
69	1
68	1
66	1
65	2
64	2
63	1
62	3
61	4
59	1
58	1
57	2
54	1
52	2
51	1
50	2
49	2
48	2
47	1
45	1
44	3
43	1
42	1
41	1
39	2
38	1
37	3
36	2
35	1
34	3
33	1
32	1
31	2
